&CONTROL
  calculation = 'nscf',
  restart_mode = 'from_scratch',
  prefix = 'si',
  outdir = '../tmp/'
  pseudo_dir = '../pseudo/'
  verbosity = 'high'
/

&SYSTEM
  ibrav =  2,
  celldm(1) = 10.2625,
  nat =  2,
  ntyp = 1,
  nbnd = 20
  ecutwfc = 100.0,
  nosym = .TRUE.
  noinv = .TRUE.
/

&ELECTRONS
  mixing_beta = 0.7,
  conv_thr = 1d-8,
/

ATOMIC_SPECIES
  Si 28.0855 Si.pz-hgh.UPF

ATOMIC_POSITIONS (alat)
  Si 0.0 0.0 0.0
  Si 0.25 0.25 0.25

K_POINTS automatic
4 4 4 1 1 1
