&CONTROL
    calculation   = 'scf',
    prefix        = 'AuDots',
    tprnfor       = .TRUE.,
    tstress       = .TRUE.,
    wf_collect    = .TRUE.,
    pseudo_dir    = '../pseudo/',
    outdir        = './work/'
/

&SYSTEM
    ibrav       = 0,
    nat         = 32,
    ntyp        = 1,    
    ecutwfc     = 45.0,
    nbnd        = 310
/

&ELECTRONS
    diagonalization  = 'david',
    conv_thr         = 1.0000000000d-08,
    mixing_beta      = 0.15
/

CELL_PARAMETERS (angstrom)
   28.097819318   0.000000000   0.000000000
    0.000000000  28.097819318   0.000000000
    0.000000000   0.000000000  28.097819318

ATOMIC_SPECIES
Au    196.96657  Au_ONCV_PBEsol-1.0.upf

ATOMIC_POSITIONS (crystal)
Au      0.548033498   0.548033498   0.355899505
Au      0.451966502   0.548033498   0.355899505
Au      0.548033498   0.451966502   0.355899505
Au      0.451966502   0.451966502   0.355899505
Au      0.548033498   0.355899505   0.451966502
Au      0.548033498   0.644100494   0.451966502
Au      0.451966502   0.644100494   0.451966502
Au      0.548033498   0.548033498   0.451966502
Au      0.451966502   0.548033498   0.451966502
Au      0.355899505   0.548033498   0.451966502
Au      0.644100494   0.548033498   0.451966502
Au      0.451966502   0.451966502   0.451966502
Au      0.548033498   0.451966502   0.451966502
Au      0.644100494   0.451966502   0.451966502
Au      0.451966502   0.355899505   0.451966502
Au      0.355899505   0.451966502   0.451966502
Au      0.451966502   0.644100494   0.548033498
Au      0.451966502   0.451966502   0.548033498
Au      0.355899505   0.451966502   0.548033498
Au      0.548033498   0.644100494   0.548033498
Au      0.548033498   0.451966502   0.548033498
Au      0.355899505   0.548033498   0.548033498
Au      0.548033498   0.355899505   0.548033498
Au      0.451966502   0.548033498   0.548033498
Au      0.644100494   0.451966502   0.548033498
Au      0.548033498   0.548033498   0.548033498
Au      0.451966502   0.355899505   0.548033498
Au      0.644100494   0.548033498   0.548033498
Au      0.451966502   0.451966502   0.644100494
Au      0.451966502   0.548033498   0.644100494
Au      0.548033498   0.548033498   0.644100494
Au      0.548033498   0.451966502   0.644100494

K_POINTS (automatic)
1 1 1 0 0 0
